20
80.0
0 19 3.89 3.79
1 18 3.0 3.89
2 17 2.0 4.0
3 16 4.25 3.75
4 15 3.2 3.87
5 14 2.0 4.0
6 13 4.77 3.69
7 12 3.5 3.83
8 11 2.0 4.0
9 10 5.6 3.6
10 9 4.0 3.78
11 8 2.0 4.0
12 7 7.14 3.43
13 6 5.0 3.67
14 5 2.0 4.0
15 4 11.0 3.0
16 3 8.0 3.33
17 2 2.0 4.0
18 1 20.0 2.0
